# Solution for model r10_t9_m2_3
# Finished Task: 7 / 9
# Makespan: 465.0, Total Distance: 488.0, Total Time: 0.0558
# R O S F
0 0 14 0.0 0.0
1 1 12 0.0 0.0
2 2 16 0.0 0.0
3 3 17 0.0 0.0
4 4 11 0.0 0.0
5 5 13 0.0 0.0
6 6 -1 0.0 0.0
7 7 -1 0.0 0.0
8 8 -1 0.0 0.0
9 9 -1 0.0 0.0
10 -1 -1 -1.0 -1.0
11 4 -1 432.0 465.0
12 1 -1 383.0 407.0
13 5 15 119.0 150.0
14 0 -1 363.0 383.0
15 5 -1 279.0 301.0
16 2 -1 407.0 432.0
17 3 -1 407.0 436.0
18 -1 -1 -1.0 -1.0
